Assets/LKHProbs~/skull.70.tsp
NAME : GeneratedProblem
COMMENT : SVGCrosshatch
TYPE : TSP
DIMENSION : 28
EDGE_WEIGHT_TYPE : EUC_2D
NODE_COORD_SECTION
1 3500 9000
2 3500 9100
3 3600 9000
4 3600 9100
5 3600 9200
6 3600 9300
7 3700 9000
8 3700 9100
9 3700 9200
10 3700 9300
11 3700 9400
12 3700 9500
13 3800 9000
14 3800 9100
15 3800 9200
16 3800 9300
17 3800 9400
18 3800 9500
19 3800 9600
20 3900 9000
21 3900 9100
22 3900 9200
23 3900 9300
24 3900 9400
25 4000 9000
26 4000 9100
27 4000 9200
28 4100 9000
EOF
