Assets/LKHProbs~/skull.70.out.txt
NAME : GeneratedProblem.2882.tour
COMMENT : Length = 2882
COMMENT : Found by LKH [Keld Helsgaun] Sun Nov 25 13:17:45 2018
TYPE : TOUR
DIMENSION : 28
TOUR_SECTION
1
2
4
8
9
5
6
10
11
12
19
18
17
24
23
16
15
22
27
26
28
25
20
21
14
13
7
3
-1
EOF
